\ This file has been generated by DOcplex
\ ENCODING=ISO-8859-1
\Problem name: dectiger problem

Minimize
 obj: V
Subject To
 c1: V + 146.672656250000 a1_u0_x0 + 200.500000000000 a1_u1_x0
     + 145.500000000000 a1_u2_x0 + 148.983593750000 a1_u0_x1
     + 145.500000000000 a1_u1_x1 + 200.500000000000 a1_u2_x1 >= 0
 c2: V + 200.500000000000 a1_u0_x0 + 175 a1_u1_x0 + 200 a1_u2_x0
     + 145.500000000000 a1_u0_x1 + 140 a1_u1_x1 + 200 a1_u2_x1 >= 0
 c3: V + 145.500000000000 a1_u0_x0 + 200 a1_u1_x0 + 140 a1_u2_x0
     + 200.500000000000 a1_u0_x1 + 200 a1_u1_x1 + 175 a1_u2_x1 >= 0
 c4: a1_u0_x0 + a1_u1_x0 + a1_u2_x0 = 1
 c5: a1_u0_x1 + a1_u1_x1 + a1_u2_x1 = 1

Bounds
       V Free
End
